instances/knapsack/discrete_knapsack_uncertainty/knapsack_90_12.lp
\ Model knapsack_90_12
\ LP format - for model browsing. Use MPS format to capture full model detail.
\ Signature: 0xc29ff4c0dcb79651
Minimize
  - 47 x[0] - 52 x[1] - 53 x[2] - 57 x[3] - 95 x[4] - 62 x[5] - 79 x[6]
   - 93 x[7] - 20 x[8] - 32 x[9] - 88 x[10] - 48 x[11] - 92 x[12]
   - 19 x[13] - 100 x[14] - 41 x[15] - 83 x[16] - 35 x[17] - 8 x[18]
   - 95 x[19] - 95 x[20] - 12 x[21] - 33 x[22] - 73 x[23] - 14 x[24]
   - 24 x[25] - 73 x[26] - 57 x[27] - 71 x[28] - 86 x[29] - 70 x[30]
   - 61 x[31] - 17 x[32] - 16 x[33] - 37 x[34] - 82 x[35] - 50 x[36]
   - 52 x[37] - 56 x[38] - 57 x[39] - 17 x[40] - 19 x[41] - 95 x[42]
   - 4 x[43] - 20 x[44] - 24 x[45] - 94 x[46] - 26 x[47] - 82 x[48]
   - 27 x[49] - 80 x[50] - 20 x[51] - 72 x[52] - 98 x[53] - 57 x[54]
   - 75 x[55] - 32 x[56] - 5 x[57] - 29 x[58] - 32 x[59] - 57 x[60]
   - 15 x[61] - 19 x[62] - 59 x[63] - 28 x[64] - 62 x[65] - 26 x[66]
   - 51 x[67] - 22 x[68] - 99 x[69] - 78 x[70] - 8 x[71] - 34 x[72]
   - 35 x[73] - 16 x[74] - 15 x[75] - 43 x[76] - 34 x[77] - 53 x[78]
   - 29 x[79] - 76 x[80] - 63 x[81] - 51 x[82] - 39 x[83] - 74 x[84]
   - 78 x[85] - 11 x[86] - 40 x[87] - 89 x[88] - 4 x[89]
Subject To
 primal_upper: x[0] + 49 x[1] + 71 x[2] + 44 x[3] + 45 x[4] + 7 x[5]
   + 10 x[6] + 41 x[7] + 10 x[8] + 67 x[9] + 77 x[10] + 72 x[11] + 57 x[12]
   + 81 x[13] + 38 x[14] + 2 x[15] + 90 x[16] + 17 x[17] + 10 x[18]
   + 71 x[19] + 14 x[20] + 37 x[21] + 69 x[22] + 8 x[23] + 90 x[24]
   + 61 x[25] + 39 x[26] + 25 x[27] + 79 x[28] + 28 x[29] + 7 x[30]
   + 97 x[31] + 73 x[32] + 78 x[33] + 49 x[34] + 42 x[35] + 69 x[36]
   + 46 x[37] + 41 x[38] + 40 x[39] + 60 x[40] + 31 x[41] + 95 x[42]
   + 11 x[43] + 4 x[44] + 40 x[45] + 23 x[46] + 51 x[47] + 32 x[48]
   + 25 x[49] + 20 x[50] + 89 x[51] + 10 x[52] + 25 x[53] + 22 x[54]
   + 97 x[55] + 78 x[56] + 80 x[57] + 9 x[58] + 39 x[59] + 74 x[60]
   + 28 x[61] + 37 x[62] + 52 x[63] + 5 x[64] + 17 x[65] + 10 x[66]
   + 40 x[67] + 9 x[68] + 11 x[69] + 71 x[70] + 75 x[71] + 23 x[72]
   + 60 x[73] + 97 x[74] + 14 x[75] + 72 x[76] + 84 x[77] + 26 x[78]
   + 84 x[79] + 15 x[80] + 71 x[81] + 24 x[82] + 67 x[83] + 55 x[84]
   + 99 x[85] + 97 x[86] + 69 x[87] + 35 x[88] + 8 x[89] + 0.1 r[0]
   + 4.9 r[1] + 7.1 r[2] + 4.4 r[3] + 4.5 r[4] + 0.7 r[5] + r[6] + 4.1 r[7]
   + r[8] + 6.7 r[9] + 7.7 r[10] + 7.2 r[11] + 5.7 r[12] + 8.1 r[13]
   + 3.8 r[14] + 0.2 r[15] + 9 r[16] + 1.7 r[17] + r[18] + 7.1 r[19]
   + 1.4 r[20] + 3.7 r[21] + 6.9 r[22] + 0.8 r[23] + 9 r[24] + 6.1 r[25]
   + 3.9 r[26] + 2.5 r[27] + 7.9 r[28] + 2.8 r[29] + 0.7 r[30] + 9.7 r[31]
   + 7.3 r[32] + 7.8 r[33] + 4.9 r[34] + 4.2 r[35] + 6.9 r[36] + 4.6 r[37]
   + 4.1 r[38] + 4 r[39] + 6 r[40] + 3.1 r[41] + 9.5 r[42] + 1.1 r[43]
   + 0.4 r[44] + 4 r[45] + 2.3 r[46] + 5.1 r[47] + 3.2 r[48] + 2.5 r[49]
   + 2 r[50] + 8.9 r[51] + r[52] + 2.5 r[53] + 2.2 r[54] + 9.7 r[55]
   + 7.8 r[56] + 8 r[57] + 0.9 r[58] + 3.9 r[59] + 7.4 r[60] + 2.8 r[61]
   + 3.7 r[62] + 5.2 r[63] + 0.5 r[64] + 1.7 r[65] + r[66] + 4 r[67]
   + 0.9 r[68] + 1.1 r[69] + 7.1 r[70] + 7.5 r[71] + 2.3 r[72] + 6 r[73]
   + 9.7 r[74] + 1.4 r[75] + 7.2 r[76] + 8.4 r[77] + 2.6 r[78] + 8.4 r[79]
   + 1.5 r[80] + 7.1 r[81] + 2.4 r[82] + 6.7 r[83] + 5.5 r[84] + 9.9 r[85]
   + 9.7 r[86] + 6.9 r[87] + 3.5 r[88] + 0.8 r[89] <= 392
 primal_lower: 0.4580886497643369 x[0] + 0.7877573716697448 x[1]
   + 3.439634492199791 x[2] + 3.795244420325572 x[3]
   + 0.9485534003656754 x[4] + 0.3681037231499346 x[5]
   + 1.178809656919739 x[6] + 0.8970548305769237 x[7]
   + 1.189720844629522 x[8] + 2.904139548341681 x[9]
   + 0.9723640308858119 x[10] + 0.1750704014558536 x[11]
   + 0.5020483961011762 x[12] + 2.026349613200598 x[13]
   + 3.952318340987144 x[14] + 1.098264930266246 x[15]
   + 0.0729229069711227 x[16] + 0.3710634153288687 x[17]
   + 3.585995515105227 x[18] + 3.056496354003329 x[19]
   + 0.4038613281355597 x[20] + 4.132246225497839 x[21]
   + 2.386047132189483 x[22] + 0.7780184689691286 x[23]
   + 2.603964899219919 x[24] + 0.8131966005858267 x[25]
   + 1.608222467226752 x[26] + 2.914716588763419 x[27]
   + 2.207505057552599 x[28] + 4.025745611736453 x[29]
   + 1.849060717505811 x[30] + 3.368355862956076 x[31]
   + 1.980604514903625 x[32] + 4.318031623762584 x[33]
   + 3.879811387601337 x[34] + 1.644247271929066 x[35]
   + 3.498628816267725 x[36] + 2.197995271094102 x[37]
   + 2.753699683836381 x[38] + 3.096939637141019 x[39]
   + 0.8759260900340882 x[40] + 3.701119409582078 x[41]
   + 3.523280674525839 x[42] + 4.69722514391612 x[43]
   + 2.829493420513468 x[44] + 2.49037884796169 x[45]
   + 0.5095023219438081 x[46] + 4.345745032699213 x[47]
   + 3.637510391736173 x[48] + 4.622235381448657 x[49]
   + 2.499248848674702 x[50] + 2.773971148061492 x[51]
   + 4.87061908880832 x[52] + 0.1436675906051302 x[53]
   + 1.538065399124808 x[54] + 0.4205923679561992 x[55]
   + 2.222411259216838 x[56] + 4.486222124078705 x[57]
   + 3.915630412092459 x[58] + 2.612061630746687 x[59]
   + 4.678482622269293 x[60] + 0.2957674416946568 x[61]
   + 1.71604710722704 x[62] + 1.619368268925079 x[63]
   + 0.5261377772799852 x[64] + 1.276701922539569 x[65]
   + 4.364932121497137 x[66] + 3.629296782790479 x[67]
   + 1.344662057768298 x[68] + 3.404788553869988 x[69]
   + 2.279599005006419 x[70] + 4.383943035045926 x[71]
   + 2.202857792505659 x[72] + 1.051881522328356 x[73]
   + 1.132627901570827 x[74] + 0.7492312074590965 x[75]
   + 2.171748099913811 x[76] + 3.370699349618742 x[77]
   + 0.0931358304350519 x[78] + 0.4057369768066978 x[79]
   + 1.408623910697259 x[80] + 1.917750057720852 x[81]
   + 4.229219434407547 x[82] + 1.569462559106109 x[83]
   + 2.212205229167356 x[84] + 0.928530087122361 x[85]
   + 1.95268097856708 x[86] + 3.464172190708941 x[87]
   + 4.717359253545465 x[88] + 3.105938896077474 x[89] + 35 u[0] + 60 u[1]
   + 70 u[2] + 51 u[3] + 80 u[4] + 13 u[5] + 69 u[6] + 39 u[7] + 49 u[8]
   + 62 u[9] + 75 u[10] + 83 u[11] + 32 u[12] + 80 u[13] + 36 u[14]
   + 56 u[15] + 81 u[16] + 68 u[17] + 85 u[18] + 54 u[19] + 41 u[20]
   + 75 u[21] + 72 u[22] + 30 u[23] + 60 u[24] + 32 u[25] + 78 u[26]
   + 71 u[27] + 97 u[28] + 79 u[29] + 5 u[30] + 55 u[31] + 43 u[32]
   + 5 u[33] + 72 u[34] + 9 u[35] + 52 u[36] + 36 u[37] + 52 u[38]
   + 34 u[39] + 31 u[40] + 17 u[41] + 26 u[42] + 77 u[43] + 79 u[44]
   + 38 u[45] + 13 u[46] + 65 u[47] + 19 u[48] + 76 u[49] + 50 u[50]
   + 80 u[51] + 49 u[52] + 32 u[53] + 72 u[54] + 11 u[55] + 65 u[56]
   + 46 u[57] + 28 u[58] + 66 u[59] + 68 u[60] + 98 u[61] + 15 u[62]
   + 58 u[63] + 87 u[64] + 84 u[65] + 44 u[66] + 62 u[67] + 40 u[68]
   + 65 u[69] + 93 u[70] + 21 u[71] + 66 u[72] + 47 u[73] + 19 u[74]
   + 40 u[75] + 2 u[76] + 87 u[77] + 40 u[78] + 98 u[79] + 49 u[80]
   + 81 u[81] + 38 u[82] + 45 u[83] + 41 u[84] + 9 u[85] + 15 u[86]
   + 68 u[87] + 42 u[88] + 23 u[89] <= 11885
 mccormick1[0]: - u[0] + r[0] <= 0
 mccormick1[1]: - u[1] + r[1] <= 0
 mccormick1[2]: - u[2] + r[2] <= 0
 mccormick1[3]: - u[3] + r[3] <= 0
 mccormick1[4]: - u[4] + r[4] <= 0
 mccormick1[5]: - u[5] + r[5] <= 0
 mccormick1[6]: - u[6] + r[6] <= 0
 mccormick1[7]: - u[7] + r[7] <= 0
 mccormick1[8]: - u[8] + r[8] <= 0
 mccormick1[9]: - u[9] + r[9] <= 0
 mccormick1[10]: - u[10] + r[10] <= 0
 mccormick1[11]: - u[11] + r[11] <= 0
 mccormick1[12]: - u[12] + r[12] <= 0
 mccormick1[13]: - u[13] + r[13] <= 0
 mccormick1[14]: - u[14] + r[14] <= 0
 mccormick1[15]: - u[15] + r[15] <= 0
 mccormick1[16]: - u[16] + r[16] <= 0
 mccormick1[17]: - u[17] + r[17] <= 0
 mccormick1[18]: - u[18] + r[18] <= 0
 mccormick1[19]: - u[19] + r[19] <= 0
 mccormick1[20]: - u[20] + r[20] <= 0
 mccormick1[21]: - u[21] + r[21] <= 0
 mccormick1[22]: - u[22] + r[22] <= 0
 mccormick1[23]: - u[23] + r[23] <= 0
 mccormick1[24]: - u[24] + r[24] <= 0
 mccormick1[25]: - u[25] + r[25] <= 0
 mccormick1[26]: - u[26] + r[26] <= 0
 mccormick1[27]: - u[27] + r[27] <= 0
 mccormick1[28]: - u[28] + r[28] <= 0
 mccormick1[29]: - u[29] + r[29] <= 0
 mccormick1[30]: - u[30] + r[30] <= 0
 mccormick1[31]: - u[31] + r[31] <= 0
 mccormick1[32]: - u[32] + r[32] <= 0
 mccormick1[33]: - u[33] + r[33] <= 0
 mccormick1[34]: - u[34] + r[34] <= 0
 mccormick1[35]: - u[35] + r[35] <= 0
 mccormick1[36]: - u[36] + r[36] <= 0
 mccormick1[37]: - u[37] + r[37] <= 0
 mccormick1[38]: - u[38] + r[38] <= 0
 mccormick1[39]: - u[39] + r[39] <= 0
 mccormick1[40]: - u[40] + r[40] <= 0
 mccormick1[41]: - u[41] + r[41] <= 0
 mccormick1[42]: - u[42] + r[42] <= 0
 mccormick1[43]: - u[43] + r[43] <= 0
 mccormick1[44]: - u[44] + r[44] <= 0
 mccormick1[45]: - u[45] + r[45] <= 0
 mccormick1[46]: - u[46] + r[46] <= 0
 mccormick1[47]: - u[47] + r[47] <= 0
 mccormick1[48]: - u[48] + r[48] <= 0
 mccormick1[49]: - u[49] + r[49] <= 0
 mccormick1[50]: - u[50] + r[50] <= 0
 mccormick1[51]: - u[51] + r[51] <= 0
 mccormick1[52]: - u[52] + r[52] <= 0
 mccormick1[53]: - u[53] + r[53] <= 0
 mccormick1[54]: - u[54] + r[54] <= 0
 mccormick1[55]: - u[55] + r[55] <= 0
 mccormick1[56]: - u[56] + r[56] <= 0
 mccormick1[57]: - u[57] + r[57] <= 0
 mccormick1[58]: - u[58] + r[58] <= 0
 mccormick1[59]: - u[59] + r[59] <= 0
 mccormick1[60]: - u[60] + r[60] <= 0
 mccormick1[61]: - u[61] + r[61] <= 0
 mccormick1[62]: - u[62] + r[62] <= 0
 mccormick1[63]: - u[63] + r[63] <= 0
 mccormick1[64]: - u[64] + r[64] <= 0
 mccormick1[65]: - u[65] + r[65] <= 0
 mccormick1[66]: - u[66] + r[66] <= 0
 mccormick1[67]: - u[67] + r[67] <= 0
 mccormick1[68]: - u[68] + r[68] <= 0
 mccormick1[69]: - u[69] + r[69] <= 0
 mccormick1[70]: - u[70] + r[70] <= 0
 mccormick1[71]: - u[71] + r[71] <= 0
 mccormick1[72]: - u[72] + r[72] <= 0
 mccormick1[73]: - u[73] + r[73] <= 0
 mccormick1[74]: - u[74] + r[74] <= 0
 mccormick1[75]: - u[75] + r[75] <= 0
 mccormick1[76]: - u[76] + r[76] <= 0
 mccormick1[77]: - u[77] + r[77] <= 0
 mccormick1[78]: - u[78] + r[78] <= 0
 mccormick1[79]: - u[79] + r[79] <= 0
 mccormick1[80]: - u[80] + r[80] <= 0
 mccormick1[81]: - u[81] + r[81] <= 0
 mccormick1[82]: - u[82] + r[82] <= 0
 mccormick1[83]: - u[83] + r[83] <= 0
 mccormick1[84]: - u[84] + r[84] <= 0
 mccormick1[85]: - u[85] + r[85] <= 0
 mccormick1[86]: - u[86] + r[86] <= 0
 mccormick1[87]: - u[87] + r[87] <= 0
 mccormick1[88]: - u[88] + r[88] <= 0
 mccormick1[89]: - u[89] + r[89] <= 0
 mccormick2[0]: - x[0] + r[0] <= 0
 mccormick2[1]: - x[1] + r[1] <= 0
 mccormick2[2]: - x[2] + r[2] <= 0
 mccormick2[3]: - x[3] + r[3] <= 0
 mccormick2[4]: - x[4] + r[4] <= 0
 mccormick2[5]: - x[5] + r[5] <= 0
 mccormick2[6]: - x[6] + r[6] <= 0
 mccormick2[7]: - x[7] + r[7] <= 0
 mccormick2[8]: - x[8] + r[8] <= 0
 mccormick2[9]: - x[9] + r[9] <= 0
 mccormick2[10]: - x[10] + r[10] <= 0
 mccormick2[11]: - x[11] + r[11] <= 0
 mccormick2[12]: - x[12] + r[12] <= 0
 mccormick2[13]: - x[13] + r[13] <= 0
 mccormick2[14]: - x[14] + r[14] <= 0
 mccormick2[15]: - x[15] + r[15] <= 0
 mccormick2[16]: - x[16] + r[16] <= 0
 mccormick2[17]: - x[17] + r[17] <= 0
 mccormick2[18]: - x[18] + r[18] <= 0
 mccormick2[19]: - x[19] + r[19] <= 0
 mccormick2[20]: - x[20] + r[20] <= 0
 mccormick2[21]: - x[21] + r[21] <= 0
 mccormick2[22]: - x[22] + r[22] <= 0
 mccormick2[23]: - x[23] + r[23] <= 0
 mccormick2[24]: - x[24] + r[24] <= 0
 mccormick2[25]: - x[25] + r[25] <= 0
 mccormick2[26]: - x[26] + r[26] <= 0
 mccormick2[27]: - x[27] + r[27] <= 0
 mccormick2[28]: - x[28] + r[28] <= 0
 mccormick2[29]: - x[29] + r[29] <= 0
 mccormick2[30]: - x[30] + r[30] <= 0
 mccormick2[31]: - x[31] + r[31] <= 0
 mccormick2[32]: - x[32] + r[32] <= 0
 mccormick2[33]: - x[33] + r[33] <= 0
 mccormick2[34]: - x[34] + r[34] <= 0
 mccormick2[35]: - x[35] + r[35] <= 0
 mccormick2[36]: - x[36] + r[36] <= 0
 mccormick2[37]: - x[37] + r[37] <= 0
 mccormick2[38]: - x[38] + r[38] <= 0
 mccormick2[39]: - x[39] + r[39] <= 0
 mccormick2[40]: - x[40] + r[40] <= 0
 mccormick2[41]: - x[41] + r[41] <= 0
 mccormick2[42]: - x[42] + r[42] <= 0
 mccormick2[43]: - x[43] + r[43] <= 0
 mccormick2[44]: - x[44] + r[44] <= 0
 mccormick2[45]: - x[45] + r[45] <= 0
 mccormick2[46]: - x[46] + r[46] <= 0
 mccormick2[47]: - x[47] + r[47] <= 0
 mccormick2[48]: - x[48] + r[48] <= 0
 mccormick2[49]: - x[49] + r[49] <= 0
 mccormick2[50]: - x[50] + r[50] <= 0
 mccormick2[51]: - x[51] + r[51] <= 0
 mccormick2[52]: - x[52] + r[52] <= 0
 mccormick2[53]: - x[53] + r[53] <= 0
 mccormick2[54]: - x[54] + r[54] <= 0
 mccormick2[55]: - x[55] + r[55] <= 0
 mccormick2[56]: - x[56] + r[56] <= 0
 mccormick2[57]: - x[57] + r[57] <= 0
 mccormick2[58]: - x[58] + r[58] <= 0
 mccormick2[59]: - x[59] + r[59] <= 0
 mccormick2[60]: - x[60] + r[60] <= 0
 mccormick2[61]: - x[61] + r[61] <= 0
 mccormick2[62]: - x[62] + r[62] <= 0
 mccormick2[63]: - x[63] + r[63] <= 0
 mccormick2[64]: - x[64] + r[64] <= 0
 mccormick2[65]: - x[65] + r[65] <= 0
 mccormick2[66]: - x[66] + r[66] <= 0
 mccormick2[67]: - x[67] + r[67] <= 0
 mccormick2[68]: - x[68] + r[68] <= 0
 mccormick2[69]: - x[69] + r[69] <= 0
 mccormick2[70]: - x[70] + r[70] <= 0
 mccormick2[71]: - x[71] + r[71] <= 0
 mccormick2[72]: - x[72] + r[72] <= 0
 mccormick2[73]: - x[73] + r[73] <= 0
 mccormick2[74]: - x[74] + r[74] <= 0
 mccormick2[75]: - x[75] + r[75] <= 0
 mccormick2[76]: - x[76] + r[76] <= 0
 mccormick2[77]: - x[77] + r[77] <= 0
 mccormick2[78]: - x[78] + r[78] <= 0
 mccormick2[79]: - x[79] + r[79] <= 0
 mccormick2[80]: - x[80] + r[80] <= 0
 mccormick2[81]: - x[81] + r[81] <= 0
 mccormick2[82]: - x[82] + r[82] <= 0
 mccormick2[83]: - x[83] + r[83] <= 0
 mccormick2[84]: - x[84] + r[84] <= 0
 mccormick2[85]: - x[85] + r[85] <= 0
 mccormick2[86]: - x[86] + r[86] <= 0
 mccormick2[87]: - x[87] + r[87] <= 0
 mccormick2[88]: - x[88] + r[88] <= 0
 mccormick2[89]: - x[89] + r[89] <= 0
 mccormick3[0]: x[0] + u[0] - r[0] <= 1
 mccormick3[1]: x[1] + u[1] - r[1] <= 1
 mccormick3[2]: x[2] + u[2] - r[2] <= 1
 mccormick3[3]: x[3] + u[3] - r[3] <= 1
 mccormick3[4]: x[4] + u[4] - r[4] <= 1
 mccormick3[5]: x[5] + u[5] - r[5] <= 1
 mccormick3[6]: x[6] + u[6] - r[6] <= 1
 mccormick3[7]: x[7] + u[7] - r[7] <= 1
 mccormick3[8]: x[8] + u[8] - r[8] <= 1
 mccormick3[9]: x[9] + u[9] - r[9] <= 1
 mccormick3[10]: x[10] + u[10] - r[10] <= 1
 mccormick3[11]: x[11] + u[11] - r[11] <= 1
 mccormick3[12]: x[12] + u[12] - r[12] <= 1
 mccormick3[13]: x[13] + u[13] - r[13] <= 1
 mccormick3[14]: x[14] + u[14] - r[14] <= 1
 mccormick3[15]: x[15] + u[15] - r[15] <= 1
 mccormick3[16]: x[16] + u[16] - r[16] <= 1
 mccormick3[17]: x[17] + u[17] - r[17] <= 1
 mccormick3[18]: x[18] + u[18] - r[18] <= 1
 mccormick3[19]: x[19] + u[19] - r[19] <= 1
 mccormick3[20]: x[20] + u[20] - r[20] <= 1
 mccormick3[21]: x[21] + u[21] - r[21] <= 1
 mccormick3[22]: x[22] + u[22] - r[22] <= 1
 mccormick3[23]: x[23] + u[23] - r[23] <= 1
 mccormick3[24]: x[24] + u[24] - r[24] <= 1
 mccormick3[25]: x[25] + u[25] - r[25] <= 1
 mccormick3[26]: x[26] + u[26] - r[26] <= 1
 mccormick3[27]: x[27] + u[27] - r[27] <= 1
 mccormick3[28]: x[28] + u[28] - r[28] <= 1
 mccormick3[29]: x[29] + u[29] - r[29] <= 1
 mccormick3[30]: x[30] + u[30] - r[30] <= 1
 mccormick3[31]: x[31] + u[31] - r[31] <= 1
 mccormick3[32]: x[32] + u[32] - r[32] <= 1
 mccormick3[33]: x[33] + u[33] - r[33] <= 1
 mccormick3[34]: x[34] + u[34] - r[34] <= 1
 mccormick3[35]: x[35] + u[35] - r[35] <= 1
 mccormick3[36]: x[36] + u[36] - r[36] <= 1
 mccormick3[37]: x[37] + u[37] - r[37] <= 1
 mccormick3[38]: x[38] + u[38] - r[38] <= 1
 mccormick3[39]: x[39] + u[39] - r[39] <= 1
 mccormick3[40]: x[40] + u[40] - r[40] <= 1
 mccormick3[41]: x[41] + u[41] - r[41] <= 1
 mccormick3[42]: x[42] + u[42] - r[42] <= 1
 mccormick3[43]: x[43] + u[43] - r[43] <= 1
 mccormick3[44]: x[44] + u[44] - r[44] <= 1
 mccormick3[45]: x[45] + u[45] - r[45] <= 1
 mccormick3[46]: x[46] + u[46] - r[46] <= 1
 mccormick3[47]: x[47] + u[47] - r[47] <= 1
 mccormick3[48]: x[48] + u[48] - r[48] <= 1
 mccormick3[49]: x[49] + u[49] - r[49] <= 1
 mccormick3[50]: x[50] + u[50] - r[50] <= 1
 mccormick3[51]: x[51] + u[51] - r[51] <= 1
 mccormick3[52]: x[52] + u[52] - r[52] <= 1
 mccormick3[53]: x[53] + u[53] - r[53] <= 1
 mccormick3[54]: x[54] + u[54] - r[54] <= 1
 mccormick3[55]: x[55] + u[55] - r[55] <= 1
 mccormick3[56]: x[56] + u[56] - r[56] <= 1
 mccormick3[57]: x[57] + u[57] - r[57] <= 1
 mccormick3[58]: x[58] + u[58] - r[58] <= 1
 mccormick3[59]: x[59] + u[59] - r[59] <= 1
 mccormick3[60]: x[60] + u[60] - r[60] <= 1
 mccormick3[61]: x[61] + u[61] - r[61] <= 1
 mccormick3[62]: x[62] + u[62] - r[62] <= 1
 mccormick3[63]: x[63] + u[63] - r[63] <= 1
 mccormick3[64]: x[64] + u[64] - r[64] <= 1
 mccormick3[65]: x[65] + u[65] - r[65] <= 1
 mccormick3[66]: x[66] + u[66] - r[66] <= 1
 mccormick3[67]: x[67] + u[67] - r[67] <= 1
 mccormick3[68]: x[68] + u[68] - r[68] <= 1
 mccormick3[69]: x[69] + u[69] - r[69] <= 1
 mccormick3[70]: x[70] + u[70] - r[70] <= 1
 mccormick3[71]: x[71] + u[71] - r[71] <= 1
 mccormick3[72]: x[72] + u[72] - r[72] <= 1
 mccormick3[73]: x[73] + u[73] - r[73] <= 1
 mccormick3[74]: x[74] + u[74] - r[74] <= 1
 mccormick3[75]: x[75] + u[75] - r[75] <= 1
 mccormick3[76]: x[76] + u[76] - r[76] <= 1
 mccormick3[77]: x[77] + u[77] - r[77] <= 1
 mccormick3[78]: x[78] + u[78] - r[78] <= 1
 mccormick3[79]: x[79] + u[79] - r[79] <= 1
 mccormick3[80]: x[80] + u[80] - r[80] <= 1
 mccormick3[81]: x[81] + u[81] - r[81] <= 1
 mccormick3[82]: x[82] + u[82] - r[82] <= 1
 mccormick3[83]: x[83] + u[83] - r[83] <= 1
 mccormick3[84]: x[84] + u[84] - r[84] <= 1
 mccormick3[85]: x[85] + u[85] - r[85] <= 1
 mccormick3[86]: x[86] + u[86] - r[86] <= 1
 mccormick3[87]: x[87] + u[87] - r[87] <= 1
 mccormick3[88]: x[88] + u[88] - r[88] <= 1
 mccormick3[89]: x[89] + u[89] - r[89] <= 1
Bounds
Binaries
 x[0] x[1] x[2] x[3] x[4] x[5] x[6] x[7] x[8] x[9] x[10] x[11] x[12] x[13]
 x[14] x[15] x[16] x[17] x[18] x[19] x[20] x[21] x[22] x[23] x[24] x[25]
 x[26] x[27] x[28] x[29] x[30] x[31] x[32] x[33] x[34] x[35] x[36] x[37]
 x[38] x[39] x[40] x[41] x[42] x[43] x[44] x[45] x[46] x[47] x[48] x[49]
 x[50] x[51] x[52] x[53] x[54] x[55] x[56] x[57] x[58] x[59] x[60] x[61]
 x[62] x[63] x[64] x[65] x[66] x[67] x[68] x[69] x[70] x[71] x[72] x[73]
 x[74] x[75] x[76] x[77] x[78] x[79] x[80] x[81] x[82] x[83] x[84] x[85]
 x[86] x[87] x[88] x[89] u[0] u[1] u[2] u[3] u[4] u[5] u[6] u[7] u[8] u[9]
 u[10] u[11] u[12] u[13] u[14] u[15] u[16] u[17] u[18] u[19] u[20] u[21]
 u[22] u[23] u[24] u[25] u[26] u[27] u[28] u[29] u[30] u[31] u[32] u[33]
 u[34] u[35] u[36] u[37] u[38] u[39] u[40] u[41] u[42] u[43] u[44] u[45]
 u[46] u[47] u[48] u[49] u[50] u[51] u[52] u[53] u[54] u[55] u[56] u[57]
 u[58] u[59] u[60] u[61] u[62] u[63] u[64] u[65] u[66] u[67] u[68] u[69]
 u[70] u[71] u[72] u[73] u[74] u[75] u[76] u[77] u[78] u[79] u[80] u[81]
 u[82] u[83] u[84] u[85] u[86] u[87] u[88] u[89] r[0] r[1] r[2] r[3] r[4]
 r[5] r[6] r[7] r[8] r[9] r[10] r[11] r[12] r[13] r[14] r[15] r[16] r[17]
 r[18] r[19] r[20] r[21] r[22] r[23] r[24] r[25] r[26] r[27] r[28] r[29]
 r[30] r[31] r[32] r[33] r[34] r[35] r[36] r[37] r[38] r[39] r[40] r[41]
 r[42] r[43] r[44] r[45] r[46] r[47] r[48] r[49] r[50] r[51] r[52] r[53]
 r[54] r[55] r[56] r[57] r[58] r[59] r[60] r[61] r[62] r[63] r[64] r[65]
 r[66] r[67] r[68] r[69] r[70] r[71] r[72] r[73] r[74] r[75] r[76] r[77]
 r[78] r[79] r[80] r[81] r[82] r[83] r[84] r[85] r[86] r[87] r[88] r[89]
End
