instances/knapsack/discrete_knapsack_uncertainty/knapsack_90_12.kp
92348
90
392

1 0.1 47
49 4.9 52
71 7.1 53
44 4.4 57
45 4.5 95
7 0.7 62
10 1.0 79
41 4.1 93
10 1.0 20
67 6.7 32
77 7.7 88
72 7.2 48
57 5.7 92
81 8.1 19
38 3.8 100
2 0.2 41
90 9.0 83
17 1.7 35
10 1.0 8
71 7.1 95
14 1.4 95
37 3.7 12
69 6.9 33
8 0.8 73
90 9.0 14
61 6.1 24
39 3.9 73
25 2.5 57
79 7.9 71
28 2.8 86
7 0.7 70
97 9.7 61
73 7.3 17
78 7.8 16
49 4.9 37
42 4.2 82
69 6.9 50
46 4.6 52
41 4.1 56
40 4.0 57
60 6.0 17
31 3.1 19
95 9.5 95
11 1.1 4
4 0.4 20
40 4.0 24
23 2.3 94
51 5.1 26
32 3.2 82
25 2.5 27
20 2.0 80
89 8.9 20
10 1.0 72
25 2.5 98
22 2.2 57
97 9.7 75
78 7.8 32
80 8.0 5
9 0.9 29
39 3.9 32
74 7.4 57
28 2.8 15
37 3.7 19
52 5.2 59
5 0.5 28
17 1.7 62
10 1.0 26
40 4.0 51
9 0.9 22
11 1.1 99
71 7.1 78
75 7.5 8
23 2.3 34
60 6.0 35
97 9.7 16
14 1.4 15
72 7.2 43
84 8.4 34
26 2.6 53
84 8.4 29
15 1.5 76
71 7.1 63
24 2.4 51
67 6.7 39
55 5.5 74
99 9.9 78
97 9.7 11
69 6.9 40
35 3.5 89
8 0.8 4

11885
443

[0.4580886497643369 0.7877573716697448 3.4396344921997906 3.7952444203255715 0.9485534003656754 0.36810372314993456 1.1788096569197395 0.8970548305769237 1.189720844629522 2.9041395483416808 0.9723640308858119 0.17507040145585365 0.5020483961011762 2.0263496132005976 3.9523183409871443 1.0982649302662464 0.0729229069711227 0.37106341532886866 3.5859955151052265 3.0564963540033294 0.40386132813555975 4.132246225497839 2.3860471321894834 0.7780184689691286 2.6039648992199194 0.8131966005858267 1.6082224672267524 2.9147165887634188 2.2075050575525985 4.025745611736453 1.8490607175058107 3.368355862956076 1.9806045149036247 4.318031623762584 3.879811387601337 1.644247271929066 3.4986288162677246 2.1979952710941015 2.7536996838363814 3.0969396371410194 0.8759260900340882 3.7011194095820783 3.523280674525839 4.69722514391612 2.8294934205134683 2.4903788479616904 0.5095023219438081 4.345745032699213 3.6375103917361726 4.622235381448657 2.499248848674702 2.773971148061492 4.87061908880832 0.1436675906051302 1.5380653991248077 0.4205923679561992 2.2224112592168384 4.486222124078705 3.915630412092459 2.612061630746687 4.678482622269293 0.2957674416946568 1.71604710722704 1.6193682689250792 0.5261377772799852 1.276701922539569 4.364932121497137 3.629296782790479 1.3446620577682982 3.4047885538699876 2.2795990050064194 4.383943035045926 2.2028577925056587 1.0518815223283557 1.1326279015708274 0.7492312074590965 2.1717480999138106 3.370699349618742 0.09313583043505191 0.40573697680669785 1.4086239106972587 1.917750057720852 4.229219434407547 1.5694625591061093 2.212205229167356 0.928530087122361 1.9526809785670802 3.464172190708941 4.717359253545465 3.105938896077474]

[35 60 70 51 80 13 69 39 49 62 75 83 32 80 36 56 81 68 85 54 41 75 72 30 60 32 78 71 97 79 5 55 43 5 72 9 52 36 52 34 31 17 26 77 79 38 13 65 19 76 50 80 49 32 72 11 65 46 28 66 68 98 15 58 87 84 44 62 40 65 93 21 66 47 19 40 2 87 40 98 49 81 38 45 41 9 15 68 42 23]
